container_size = [52, 33, 16];
Box = B(1..6);
no_boxes = [31, 12, 25, 17, 13, 22];
box_size =
[|       Length: Width: Height: 
 | B(1):      3,     3,      3
 | B(2):      9,     3,      3
 | B(3):      4,     4,      1
 | B(4):     15,     2,      2
 | B(5):      5,     4,      3
 | B(6):      2,     2,      3
 |];
